1827
1049
2952
3441
1966
1549
3838
2075
3186
974
3215
1964
1989
1296
3385
2383
1151
3142
2762
1009
853
1855
271
2634
2100
2963
2342
1749
2708
647
2972
2125
1743
390
1485
1286
1791
3131
1811
1475

35917
9743
54021
65211
32637

1117
303
1680
2028
1015

3685.8

70
19
105
126
64
63
148
75
147
16
130
78
52
31
134
105
45
146
126
29
17
60
4
114
83
113
90
64
132
8
103
100
86
13
59
46
48
143
50
30
